#p opt(loose,nomicro) freq   external='./ani_calc-2x.sh'  nosymm

Title Card Required

0 1
O  1.36536589   -0.00006677   0.10009312
H  1.77443077    0.76458046  -0.30815908 
H  1.77489047   -0.76400455  -0.30902363 



